s td 29 5 32
b 1 7 8
b 2 25 26
b 3 1 2 10
b 4 2 3 10
b 5 3 4 5
b 6 5 6 7
b 7 5 7 16
b 8 9 10 18
b 9 5 15 16
b 10 17 18 26
b 11 15 23 24
b 12 18 26 27
b 13 18 27 28
b 14 28 29 30
b 15 30 31 32
b 16 23 30 32
b 17 3 5 14 15
b 18 3 10 11 22 30
b 19 3 11 14 22 30
b 20 3 11 12 14 22
b 21 12 13 14 22
b 22 3 14 22 23 30
b 23 3 14 15 23
b 24 10 11 20 22 30
b 25 10 20 28 30
b 26 10 19 20 28
b 27 10 18 19 28
b 28 20 21 22 30
b 29 23 30
1 7
2 12
3 4
4 18
5 17
6 7
7 9
8 27
9 17
10 12
11 23
12 13
13 27
14 25
15 16
16 29
17 23
18 19
18 24
19 20
19 22
20 21
22 29
22 23
24 25
24 28
25 26
26 27
